19:22:26 | INFO    | Run started | run_id: SR_SV_RD_case3_P5_eps85 | log file: C:\Users\Asus\Documents\GitHub\logistics-model2\internal-logistics-model2\results\SR_SV_RD\case3\SR_SV_RD_case3_P5_eps85_2026_05_06_19_22.log
19:22:27 | INFO    | Products loaded | sheet=case3 | rows=15
19:22:27 | INFO    | Data loaded | |N|=31 |Nw|=30 |K|=1 |R|=1 |P|=5 | U=30
19:22:27 | INFO    | Big-M | time=491.0 precedence=480.0 wait=465.0 load_lb=20 load_ub=20
19:22:27 | INFO    | Set parameter Username
19:22:27 | INFO    | Set parameter LicenseID to value 2811848
19:22:27 | INFO    | Academic license - for non-commercial use only - expires 2027-04-22
19:22:27 | INFO    | Objective set | primary: min route_duration | tie-break weight on wait: 0.001
19:22:27 | INFO    | Constraint (3) added | total_wait <= 85
19:22:27 | INFO    | Constraints (4)-(9) added | route structure
19:22:27 | INFO    | Constraints (10)-(12) added | product assignment
19:22:27 | INFO    | Constraints (13)-(15) added | route timing
19:22:27 | INFO    | Constraints (16) added | time consistency
19:22:27 | INFO    | Constraints (17)-(19) added | service times
19:22:27 | INFO    | Constraints (20)-(22) added | precedence, route closure, waiting
19:22:27 | INFO    | Constraints (23)-(27) added | load propagation
19:22:27 | INFO    | Constraints (28)-(32) added | MTZ and route ordering
19:22:27 | INFO    | Set parameter TimeLimit to value 600
19:22:27 | INFO    | Set parameter MIPGap to value 0.01
19:22:27 | INFO    | Set parameter Presolve to value 2
19:22:27 | INFO    | Set parameter LogFile to value "C:\Users\Asus\Documents\GitHub\logistics-model2\internal-logistics-model2\results\SR_SV_RD\case3\result_SR_SV_RD_case3_P5_eps85_2026_05_06_19_22.log"
19:22:27 | INFO    | Solver configured | TimeLimit=600s | MIPGap=0.01 | gurobi_log=C:\Users\Asus\Documents\GitHub\logistics-model2\internal-logistics-model2\results\SR_SV_RD\case3\result_SR_SV_RD_case3_P5_eps85_2026_05_06_19_22.log
19:22:27 | INFO    | Optimization starting...
19:22:27 | INFO    | Gurobi Optimizer version 12.0.0 build v12.0.0rc1 (win64 - Windows 10.0 (19045.2))
19:22:27 | INFO    | 
19:22:27 | INFO    | CPU model: 12th Gen Intel(R) Core(TM) i7-12650H, instruction set [SSE2|AVX|AVX2]
19:22:27 | INFO    | Thread count: 10 physical cores, 16 logical processors, using up to 16 threads
19:22:27 | INFO    | 
19:22:27 | INFO    | Non-default parameters:
19:22:27 | INFO    | TimeLimit  600
19:22:27 | INFO    | MIPGap  0.01
19:22:27 | INFO    | Presolve  2
19:22:27 | INFO    | 
19:22:27 | INFO    | Optimize a model with 3852 rows, 1123 columns and 19434 nonzeros
19:22:27 | INFO    | Model fingerprint: 0xa2b4465f
19:22:27 | INFO    | Variable types: 158 continuous, 965 integer (935 binary)
19:22:27 | INFO    | Coefficient statistics:
19:22:27 | INFO    |   Matrix range     [1e+00, 5e+02]
19:22:27 | INFO    |   Objective range  [1e-03, 1e+00]
19:22:27 | INFO    |   Bounds range     [1e+00, 3e+01]
19:22:27 | INFO    |   RHS range        [1e+00, 5e+02]
19:22:27 | INFO    | Presolve removed 2470 rows and 927 columns
19:22:27 | INFO    | Presolve time: 0.00s
19:22:27 | INFO    | 
19:22:27 | INFO    | Explored 0 nodes (0 simplex iterations) in 0.00 seconds (0.00 work units)
19:22:27 | INFO    | Thread count was 1 (of 16 available processors)
19:22:27 | INFO    | 
19:22:27 | INFO    | Solution count 0
19:22:27 | INFO    | 
19:22:27 | INFO    | Model is infeasible
19:22:27 | INFO    | Best objective -, best bound -, gap -
19:22:27 | ERROR   | Model is INFEASIBLE — computing IIS
19:22:27 | INFO    | Gurobi Optimizer version 12.0.0 build v12.0.0rc1 (win64 - Windows 10.0 (19045.2))
19:22:27 | INFO    | 
19:22:27 | INFO    | CPU model: 12th Gen Intel(R) Core(TM) i7-12650H, instruction set [SSE2|AVX|AVX2]
19:22:27 | INFO    | Thread count: 10 physical cores, 16 logical processors, using up to 16 threads
19:22:27 | INFO    | 
19:22:27 | INFO    | Non-default parameters:
19:22:27 | INFO    | TimeLimit  600
19:22:27 | INFO    | MIPGap  0.01
19:22:27 | INFO    | Presolve  2
19:22:27 | INFO    | 
19:22:27 | INFO    | 
19:22:27 | INFO    | Computing Irreducible Inconsistent Subsystem (IIS)...
19:22:27 | INFO    | 
19:22:27 | INFO    |            Constraints          |            Bounds           |  Runtime
19:22:27 | INFO    |       Min       Max     Guess   |   Min       Max     Guess   |
19:22:27 | INFO    | --------------------------------------------------------------------------
19:22:27 | INFO    |         0      3852         -         0       188         -           0s
19:22:27 | INFO    |        20        20        20         0         0         0           0s
19:22:27 | INFO    | 
19:22:27 | INFO    | IIS computed: 20 constraints, 0 bounds
19:22:27 | INFO    | IIS runtime: 0.03 seconds (0.03 work units)
19:22:27 | ERROR   | IIS written | C:\Users\Asus\Documents\GitHub\logistics-model2\internal-logistics-model2\results\SR_SV_RD\case3\infeasible_SR_SV_RD_case3_P5_eps85_2026_05_06_19_22.ilp
19:22:27 | INFO    | Run complete | run_id=SR_SV_RD_case3_P5_eps85
